p cnf 400 1
400 0
w 1 0.507814
w 2 1 0.169575
w 2 -1 0.284407
w 3 2 0
w 3 -2 1
w 4 3 0.919956
w 4 -3 0.0175636
w 5 4 0.97799
w 5 -4 0.783435
w 6 5 1
w 6 -5 0
w 7 6 1
w 7 -6 0
w 8 7 0.590341
w 8 -7 0.437478
w 9 8 1
w 9 -8 0
w 10 9 0
w 10 -9 1
w 11 10 1
w 11 -10 0
w 12 11 0
w 12 -11 1
w 13 12 1
w 13 -12 0
w 14 13 1
w 14 -13 0
w 15 14 0.034006
w 15 -14 0.912398
w 16 15 1
w 16 -15 0
w 17 16 1
w 17 -16 0
w 18 17 1
w 18 -17 0
w 19 18 0.199507
w 19 -18 0.00260606
w 20 19 0.684303
w 20 -19 0.334982
w 21 1 1
w 21 -1 0
w 22 21 2 0.499884
w 22 21 -2 0.88448
w 22 -21 2 0.943352
w 22 -21 -2 0.99646
w 23 22 3 0
w 23 22 -3 1
w 23 -22 3 0
w 23 -22 -3 0
w 24 23 4 0.055879
w 24 23 -4 0.889316
w 24 -23 4 0.65372
w 24 -23 -4 0.089885
w 25 24 5 0.894559
w 25 24 -5 0.391446
w 25 -24 5 0.00332252
w 25 -24 -5 0.858234
w 26 25 6 0.222494
w 26 25 -6 0.755904
w 26 -25 6 0.81247
w 26 -25 -6 0.2251
w 27 26 7 0.496773
w 27 26 -7 0.560082
w 27 -26 7 0.751133
w 27 -26 -7 0.061829
w 28 27 8 0
w 28 27 -8 0
w 28 -27 8 1
w 28 -27 -8 1
w 29 28 9 1
w 29 28 -9 0
w 29 -28 9 1
w 29 -28 -9 0
w 30 29 10 0
w 30 29 -10 0
w 30 -29 10 1
w 30 -29 -10 1
w 31 30 11 0.138509
w 31 30 -11 0.525818
w 31 -30 11 0.201394
w 31 -30 -11 0.141832
w 32 31 12 1
w 32 31 -12 0
w 32 -31 12 0
w 32 -31 -12 0
w 33 32 13 0.828683
w 33 32 -13 0.1236
w 33 -32 13 0.149508
w 33 -32 -13 0.579817
w 34 33 14 0
w 34 33 -14 0
w 34 -33 14 1
w 34 -33 -14 1
w 35 34 15 1
w 35 34 -15 1
w 35 -34 15 0
w 35 -34 -15 0
w 36 35 16 0.826777
w 36 35 -16 0.421109
w 36 -35 16 0.235894
w 36 -35 -16 0.163572
w 37 36 17 0
w 37 36 -17 1
w 37 -36 17 1
w 37 -36 -17 1
w 38 37 18 1
w 38 37 -18 0
w 38 -37 18 0
w 38 -37 -18 1
w 39 38 19 0.397663
w 39 38 -19 0.930878
w 39 -38 19 0.81202
w 39 -38 -19 0.547171
w 40 39 20 0.997449
w 40 39 -20 0.182085
w 40 -39 20 0.341529
w 40 -39 -20 0.129187
w 41 21 1
w 41 -21 0
w 42 41 22 1
w 42 41 -22 1
w 42 -41 22 0
w 42 -41 -22 0
w 43 42 23 0.157185
w 43 42 -23 0.849131
w 43 -42 23 0.78949
w 43 -42 -23 0.209552
w 44 43 24 0.0915703
w 44 43 -24 0.787738
w 44 -43 24 0.142208
w 44 -43 -24 0.535483
w 45 44 25 0.203801
w 45 44 -25 0.34372
w 45 -44 25 0.85217
w 45 -44 -25 0.892221
w 46 45 26 0.783048
w 46 45 -26 0.70424
w 46 -45 26 0.288555
w 46 -45 -26 0.293743
w 47 46 27 0.47064
w 47 46 -27 0.635272
w 47 -46 27 0.830876
w 47 -46 -27 0.716397
w 48 47 28 1
w 48 47 -28 1
w 48 -47 28 0
w 48 -47 -28 1
w 49 48 29 0
w 49 48 -29 0
w 49 -48 29 1
w 49 -48 -29 0
w 50 49 30 0
w 50 49 -30 0
w 50 -49 30 0
w 50 -49 -30 1
w 51 50 31 0.763909
w 51 50 -31 0.517151
w 51 -50 31 0.240437
w 51 -50 -31 0.61608
w 52 51 32 1
w 52 51 -32 1
w 52 -51 32 0
w 52 -51 -32 1
w 53 52 33 0.815301
w 53 52 -33 0.741016
w 53 -52 33 0.328143
w 53 -52 -33 0.646177
w 54 53 34 0
w 54 53 -34 1
w 54 -53 34 1
w 54 -53 -34 1
w 55 54 35 0.717688
w 55 54 -35 0.645659
w 55 -54 35 0.974421
w 55 -54 -35 0.987352
w 56 55 36 0.145562
w 56 55 -36 0.348586
w 56 -55 36 0.885788
w 56 -55 -36 0.458912
w 57 56 37 0
w 57 56 -37 0
w 57 -56 37 1
w 57 -56 -37 0
w 58 57 38 0
w 58 57 -38 1
w 58 -57 38 0
w 58 -57 -38 0
w 59 58 39 0
w 59 58 -39 0
w 59 -58 39 1
w 59 -58 -39 0
w 60 59 40 0
w 60 59 -40 1
w 60 -59 40 1
w 60 -59 -40 0
w 61 41 0.0243782
w 61 -41 0.00475653
w 62 61 42 0.0117301
w 62 61 -42 0.876611
w 62 -61 42 0.0258172
w 62 -61 -42 0.360316
w 63 62 43 0.484729
w 63 62 -43 0.605619
w 63 -62 43 0.412095
w 63 -62 -43 0.460792
w 64 63 44 1
w 64 63 -44 1
w 64 -63 44 0
w 64 -63 -44 1
w 65 64 45 0
w 65 64 -45 0
w 65 -64 45 1
w 65 -64 -45 0
w 66 65 46 0
w 66 65 -46 1
w 66 -65 46 0
w 66 -65 -46 0
w 67 66 47 0.762335
w 67 66 -47 0.709317
w 67 -66 47 0.825588
w 67 -66 -47 0.786713
w 68 67 48 0.705843
w 68 67 -48 0.798443
w 68 -67 48 0.590684
w 68 -67 -48 0.73166
w 69 68 49 0
w 69 68 -49 0
w 69 -68 49 0
w 69 -68 -49 1
w 70 69 50 0.855737
w 70 69 -50 0.44305
w 70 -69 50 0.523406
w 70 -69 -50 0.414656
w 71 70 51 0.868677
w 71 70 -51 0.711512
w 71 -70 51 0.486376
w 71 -70 -51 0.528293
w 72 71 52 1
w 72 71 -52 0
w 72 -71 52 1
w 72 -71 -52 1
w 73 72 53 1
w 73 72 -53 0
w 73 -72 53 0
w 73 -72 -53 0
w 74 73 54 0.922041
w 74 73 -54 0.65068
w 74 -73 54 0.67598
w 74 -73 -54 0.512725
w 75 74 55 1
w 75 74 -55 1
w 75 -74 55 0
w 75 -74 -55 1
w 76 75 56 0.27591
w 76 75 -56 0.454855
w 76 -75 56 0.0740351
w 76 -75 -56 0.799316
w 77 76 57 0.85986
w 77 76 -57 0.667993
w 77 -76 57 0.581022
w 77 -76 -57 0.346236
w 78 77 58 0
w 78 77 -58 1
w 78 -77 58 0
w 78 -77 -58 1
w 79 78 59 0.843369
w 79 78 -59 0.387085
w 79 -78 59 0.638394
w 79 -78 -59 0.0513365
w 80 79 60 0
w 80 79 -60 1
w 80 -79 60 0
w 80 -79 -60 0
w 81 61 0
w 81 -61 1
w 82 81 62 1
w 82 81 -62 0
w 82 -81 62 1
w 82 -81 -62 1
w 83 82 63 0
w 83 82 -63 1
w 83 -82 63 1
w 83 -82 -63 0
w 84 83 64 0.706891
w 84 83 -64 0.531156
w 84 -83 64 0.263027
w 84 -83 -64 0.903177
w 85 84 65 0.482107
w 85 84 -65 0.247895
w 85 -84 65 0.867336
w 85 -84 -65 0.0296771
w 86 85 66 0
w 86 85 -66 0
w 86 -85 66 1
w 86 -85 -66 0
w 87 86 67 1
w 87 86 -67 0
w 87 -86 67 0
w 87 -86 -67 1
w 88 87 68 1
w 88 87 -68 1
w 88 -87 68 0
w 88 -87 -68 0
w 89 88 69 0
w 89 88 -69 1
w 89 -88 69 0
w 89 -88 -69 1
w 90 89 70 0.882929
w 90 89 -70 0.590246
w 90 -89 70 0.173633
w 90 -89 -70 0.786106
w 91 90 71 0
w 91 90 -71 0
w 91 -90 71 1
w 91 -90 -71 1
w 92 91 72 1
w 92 91 -72 1
w 92 -91 72 0
w 92 -91 -72 0
w 93 92 73 0.383842
w 93 92 -73 0.466791
w 93 -92 73 0.913403
w 93 -92 -73 0.985922
w 94 93 74 0
w 94 93 -74 1
w 94 -93 74 1
w 94 -93 -74 1
w 95 94 75 0.435378
w 95 94 -75 0.453256
w 95 -94 75 0.870611
w 95 -94 -75 0.611416
w 96 95 76 0.781217
w 96 95 -76 0.494345
w 96 -95 76 0.102592
w 96 -95 -76 0.95485
w 97 96 77 0
w 97 96 -77 0
w 97 -96 77 0
w 97 -96 -77 1
w 98 97 78 1
w 98 97 -78 1
w 98 -97 78 0
w 98 -97 -78 1
w 99 98 79 0.186987
w 99 98 -79 0.0914225
w 99 -98 79 0.0255564
w 99 -98 -79 0.100389
w 100 99 80 0
w 100 99 -80 1
w 100 -99 80 0
w 100 -99 -80 1
w 101 81 0.894052
w 101 -81 0.159851
w 102 101 82 1
w 102 101 -82 1
w 102 -101 82 0
w 102 -101 -82 0
w 103 102 83 0
w 103 102 -83 0
w 103 -102 83 0
w 103 -102 -83 1
w 104 103 84 0.470603
w 104 103 -84 0.40733
w 104 -103 84 0.300228
w 104 -103 -84 0.131523
w 105 104 85 1
w 105 104 -85 1
w 105 -104 85 0
w 105 -104 -85 1
w 106 105 86 0.344203
w 106 105 -86 0.176575
w 106 -105 86 0.14208
w 106 -105 -86 0.760559
w 107 106 87 0
w 107 106 -87 0
w 107 -106 87 0
w 107 -106 -87 1
w 108 107 88 0.852547
w 108 107 -88 0.79767
w 108 -107 88 0.461383
w 108 -107 -88 0.398428
w 109 108 89 1
w 109 108 -89 1
w 109 -108 89 0
w 109 -108 -89 1
w 110 109 90 0
w 110 109 -90 1
w 110 -109 90 0
w 110 -109 -90 0
w 111 110 91 1
w 111 110 -91 0
w 111 -110 91 1
w 111 -110 -91 0
w 112 111 92 0.419678
w 112 111 -92 0.0626544
w 112 -111 92 0.053698
w 112 -111 -92 0.561759
w 113 112 93 0.247529
w 113 112 -93 0.428312
w 113 -112 93 0.344429
w 113 -112 -93 0.335413
w 114 113 94 0
w 114 113 -94 1
w 114 -113 94 1
w 114 -113 -94 0
w 115 114 95 0.315668
w 115 114 -95 0.83117
w 115 -114 95 0.485546
w 115 -114 -95 0.925011
w 116 115 96 0
w 116 115 -96 1
w 116 -115 96 0
w 116 -115 -96 1
w 117 116 97 1
w 117 116 -97 0
w 117 -116 97 1
w 117 -116 -97 0
w 118 117 98 0
w 118 117 -98 1
w 118 -117 98 1
w 118 -117 -98 0
w 119 118 99 0.992796
w 119 118 -99 0.121191
w 119 -118 99 0.251735
w 119 -118 -99 0.337225
w 120 119 100 1
w 120 119 -100 0
w 120 -119 100 0
w 120 -119 -100 0
w 121 101 0.23095
w 121 -101 0.274505
w 122 121 102 0.716496
w 122 121 -102 0.199515
w 122 -121 102 0.0314763
w 122 -121 -102 0.212523
w 123 122 103 0.156085
w 123 122 -103 0.126361
w 123 -122 103 0.75933
w 123 -122 -103 0.294238
w 124 123 104 0.702171
w 124 123 -104 0.136225
w 124 -123 104 0.621766
w 124 -123 -104 0.522135
w 125 124 105 0
w 125 124 -105 0
w 125 -124 105 0
w 125 -124 -105 1
w 126 125 106 0.473048
w 126 125 -106 0.12137
w 126 -125 106 0.973591
w 126 -125 -106 0.179498
w 127 126 107 0.618154
w 127 126 -107 0.138335
w 127 -126 107 0.495867
w 127 -126 -107 0.849104
w 128 127 108 0
w 128 127 -108 1
w 128 -127 108 0
w 128 -127 -108 0
w 129 128 109 0.206737
w 129 128 -109 0.472317
w 129 -128 109 0.904484
w 129 -128 -109 0.966067
w 130 129 110 0.419322
w 130 129 -110 0.668239
w 130 -129 110 0.902781
w 130 -129 -110 0.0410882
w 131 130 111 1
w 131 130 -111 0
w 131 -130 111 0
w 131 -130 -111 1
w 132 131 112 0.103158
w 132 131 -112 0.995031
w 132 -131 112 0.737951
w 132 -131 -112 0.0767492
w 133 132 113 0
w 133 132 -113 1
w 133 -132 113 1
w 133 -132 -113 0
w 134 133 114 0.725705
w 134 133 -114 0.0567238
w 134 -133 114 0.109606
w 134 -133 -114 0.33806
w 135 134 115 1
w 135 134 -115 1
w 135 -134 115 0
w 135 -134 -115 1
w 136 135 116 0.611829
w 136 135 -116 0.211534
w 136 -135 116 0.179102
w 136 -135 -116 0.51461
w 137 136 117 1
w 137 136 -117 1
w 137 -136 117 1
w 137 -136 -117 0
w 138 137 118 0
w 138 137 -118 1
w 138 -137 118 0
w 138 -137 -118 1
w 139 138 119 1
w 139 138 -119 1
w 139 -138 119 1
w 139 -138 -119 0
w 140 139 120 1
w 140 139 -120 0
w 140 -139 120 0
w 140 -139 -120 0
w 141 121 0.917341
w 141 -121 0.371798
w 142 141 122 1
w 142 141 -122 0
w 142 -141 122 1
w 142 -141 -122 0
w 143 142 123 0
w 143 142 -123 1
w 143 -142 123 1
w 143 -142 -123 1
w 144 143 124 0.713227
w 144 143 -124 0.443336
w 144 -143 124 0.0415951
w 144 -143 -124 0.414868
w 145 144 125 0.373888
w 145 144 -125 0.854461
w 145 -144 125 0.637694
w 145 -144 -125 0.88071
w 146 145 126 0.468151
w 146 145 -126 0.700397
w 146 -145 126 0.0578168
w 146 -145 -126 0.842614
w 147 146 127 1
w 147 146 -127 0
w 147 -146 127 1
w 147 -146 -127 1
w 148 147 128 0.557488
w 148 147 -128 0.282158
w 148 -147 128 0.862492
w 148 -147 -128 0.496599
w 149 148 129 0.238036
w 149 148 -129 0.614813
w 149 -148 129 0.545655
w 149 -148 -129 0.866203
w 150 149 130 0
w 150 149 -130 1
w 150 -149 130 0
w 150 -149 -130 0
w 151 150 131 0.0479794
w 151 150 -131 0.66547
w 151 -150 131 0.848759
w 151 -150 -131 0.685674
w 152 151 132 0.418914
w 152 151 -132 0.153825
w 152 -151 132 0.246578
w 152 -151 -132 0.476731
w 153 152 133 0.492366
w 153 152 -133 0.0789331
w 153 -152 133 0.323122
w 153 -152 -133 0.621606
w 154 153 134 0.0216037
w 154 153 -134 0.179093
w 154 -153 134 0.880635
w 154 -153 -134 0.884095
w 155 154 135 0.537237
w 155 154 -135 0.122131
w 155 -154 135 0.290505
w 155 -154 -135 0.0828916
w 156 155 136 0.393008
w 156 155 -136 0.332879
w 156 -155 136 0.567764
w 156 -155 -136 0.938847
w 157 156 137 0.562061
w 157 156 -137 0.986826
w 157 -156 137 0.289932
w 157 -156 -137 0.41082
w 158 157 138 0.836112
w 158 157 -138 0.829734
w 158 -157 138 0.826325
w 158 -157 -138 0.08269
w 159 158 139 1
w 159 158 -139 0
w 159 -158 139 1
w 159 -158 -139 1
w 160 159 140 0
w 160 159 -140 1
w 160 -159 140 1
w 160 -159 -140 0
w 161 141 1
w 161 -141 0
w 162 161 142 1
w 162 161 -142 1
w 162 -161 142 1
w 162 -161 -142 0
w 163 162 143 0.817517
w 163 162 -143 0.729813
w 163 -162 143 0.673808
w 163 -162 -143 0.441979
w 164 163 144 1
w 164 163 -144 0
w 164 -163 144 1
w 164 -163 -144 1
w 165 164 145 0.532429
w 165 164 -145 0.159459
w 165 -164 145 0.650712
w 165 -164 -145 0.838894
w 166 165 146 0.225769
w 166 165 -146 0.224292
w 166 -165 146 0.128108
w 166 -165 -146 0.42243
w 167 166 147 1
w 167 166 -147 1
w 167 -166 147 0
w 167 -166 -147 1
w 168 167 148 0
w 168 167 -148 1
w 168 -167 148 1
w 168 -167 -148 1
w 169 168 149 0.776579
w 169 168 -149 0.412761
w 169 -168 149 0.600355
w 169 -168 -149 0.218558
w 170 169 150 0.260989
w 170 169 -150 0.950468
w 170 -169 150 0.407331
w 170 -169 -150 0.594124
w 171 170 151 0.93976
w 171 170 -151 0.753583
w 171 -170 151 0.169203
w 171 -170 -151 0.778654
w 172 171 152 0.394971
w 172 171 -152 0.00294536
w 172 -171 152 0.863914
w 172 -171 -152 0.817402
w 173 172 153 1
w 173 172 -153 0
w 173 -172 153 1
w 173 -172 -153 0
w 174 173 154 1
w 174 173 -154 1
w 174 -173 154 0
w 174 -173 -154 0
w 175 174 155 0.583351
w 175 174 -155 0.493853
w 175 -174 155 0.1233
w 175 -174 -155 0.183706
w 176 175 156 0.827936
w 176 175 -156 0.444695
w 176 -175 156 0.662878
w 176 -175 -156 0.235267
w 177 176 157 0
w 177 176 -157 0
w 177 -176 157 1
w 177 -176 -157 1
w 178 177 158 0.528207
w 178 177 -158 0.745543
w 178 -177 158 0.956625
w 178 -177 -158 0.392121
w 179 178 159 0.167737
w 179 178 -159 0.551632
w 179 -178 159 0.178531
w 179 -178 -159 0.451525
w 180 179 160 1
w 180 179 -160 1
w 180 -179 160 0
w 180 -179 -160 0
w 181 161 0.796456
w 181 -161 0.883907
w 182 181 162 1
w 182 181 -162 1
w 182 -181 162 1
w 182 -181 -162 0
w 183 182 163 0.796151
w 183 182 -163 0.982958
w 183 -182 163 0.551127
w 183 -182 -163 0.97752
w 184 183 164 1
w 184 183 -164 1
w 184 -183 164 1
w 184 -183 -164 0
w 185 184 165 1
w 185 184 -165 1
w 185 -184 165 0
w 185 -184 -165 0
w 186 185 166 0.815109
w 186 185 -166 0.687553
w 186 -185 166 0.873816
w 186 -185 -166 0.458859
w 187 186 167 0.959732
w 187 186 -167 0.759415
w 187 -186 167 0.8243
w 187 -186 -167 0.756188
w 188 187 168 0.245163
w 188 187 -168 0.675944
w 188 -187 168 0.710934
w 188 -187 -168 0.378437
w 189 188 169 1
w 189 188 -169 0
w 189 -188 169 1
w 189 -188 -169 0
w 190 189 170 0
w 190 189 -170 1
w 190 -189 170 0
w 190 -189 -170 1
w 191 190 171 0.553833
w 191 190 -171 0.744533
w 191 -190 171 0.253494
w 191 -190 -171 0.190411
w 192 191 172 0.0689842
w 192 191 -172 0.00552009
w 192 -191 172 0.668114
w 192 -191 -172 0.9428
w 193 192 173 0
w 193 192 -173 1
w 193 -192 173 1
w 193 -192 -173 1
w 194 193 174 0.867115
w 194 193 -174 0.634868
w 194 -193 174 0.334664
w 194 -193 -174 0.578049
w 195 194 175 1
w 195 194 -175 0
w 195 -194 175 1
w 195 -194 -175 0
w 196 195 176 0.34
w 196 195 -176 0.729471
w 196 -195 176 0.693561
w 196 -195 -176 0.8202
w 197 196 177 1
w 197 196 -177 1
w 197 -196 177 0
w 197 -196 -177 1
w 198 197 178 0.130808
w 198 197 -178 0.00567568
w 198 -197 178 0.569964
w 198 -197 -178 0.798922
w 199 198 179 0.0343434
w 199 198 -179 0.364326
w 199 -198 179 0.851008
w 199 -198 -179 0.258138
w 200 199 180 0.509728
w 200 199 -180 0.125253
w 200 -199 180 0.388898
w 200 -199 -180 0.844392
w 201 181 0.402202
w 201 -181 0.602691
w 202 201 182 0.590095
w 202 201 -182 0.767584
w 202 -201 182 0.080256
w 202 -201 -182 0.930095
w 203 202 183 0
w 203 202 -183 1
w 203 -202 183 0
w 203 -202 -183 0
w 204 203 184 0
w 204 203 -184 1
w 204 -203 184 1
w 204 -203 -184 0
w 205 204 185 0
w 205 204 -185 1
w 205 -204 185 0
w 205 -204 -185 1
w 206 205 186 1
w 206 205 -186 0
w 206 -205 186 1
w 206 -205 -186 0
w 207 206 187 0.490002
w 207 206 -187 0.552984
w 207 -206 187 0.379772
w 207 -206 -187 0.892204
w 208 207 188 0
w 208 207 -188 0
w 208 -207 188 1
w 208 -207 -188 1
w 209 208 189 0
w 209 208 -189 0
w 209 -208 189 1
w 209 -208 -189 0
w 210 209 190 1
w 210 209 -190 0
w 210 -209 190 1
w 210 -209 -190 1
w 211 210 191 0.988541
w 211 210 -191 0.234525
w 211 -210 191 0.542672
w 211 -210 -191 0.336398
w 212 211 192 0.889745
w 212 211 -192 0.535263
w 212 -211 192 0.0788211
w 212 -211 -192 0.990849
w 213 212 193 1
w 213 212 -193 1
w 213 -212 193 0
w 213 -212 -193 0
w 214 213 194 0
w 214 213 -194 1
w 214 -213 194 1
w 214 -213 -194 1
w 215 214 195 1
w 215 214 -195 0
w 215 -214 195 1
w 215 -214 -195 1
w 216 215 196 0.717456
w 216 215 -196 0.995271
w 216 -215 196 0.507103
w 216 -215 -196 0.693246
w 217 216 197 0.495645
w 217 216 -197 0.927771
w 217 -216 197 0.0978677
w 217 -216 -197 0.832043
w 218 217 198 0
w 218 217 -198 1
w 218 -217 198 1
w 218 -217 -198 1
w 219 218 199 0.289487
w 219 218 -199 0.459313
w 219 -218 199 0.408001
w 219 -218 -199 0.424549
w 220 219 200 0.360515
w 220 219 -200 0.443978
w 220 -219 200 0.687723
w 220 -219 -200 0.236289
w 221 201 0
w 221 -201 1
w 222 221 202 0.150519
w 222 221 -202 0.385911
w 222 -221 202 0.151547
w 222 -221 -202 0.0684629
w 223 222 203 0
w 223 222 -203 1
w 223 -222 203 1
w 223 -222 -203 0
w 224 223 204 0
w 224 223 -204 1
w 224 -223 204 0
w 224 -223 -204 1
w 225 224 205 0.27056
w 225 224 -205 0.713955
w 225 -224 205 0.765957
w 225 -224 -205 0.881721
w 226 225 206 0
w 226 225 -206 1
w 226 -225 206 0
w 226 -225 -206 0
w 227 226 207 0.871969
w 227 226 -207 0.745362
w 227 -226 207 0.886525
w 227 -226 -207 0.299998
w 228 227 208 0.418901
w 228 227 -208 0.450517
w 228 -227 208 0.0867453
w 228 -227 -208 0.570449
w 229 228 209 0.190113
w 229 228 -209 0.717267
w 229 -228 209 0.0945462
w 229 -228 -209 0.986725
w 230 229 210 1
w 230 229 -210 0
w 230 -229 210 1
w 230 -229 -210 1
w 231 230 211 0.00665623
w 231 230 -211 0.339571
w 231 -230 211 0.604822
w 231 -230 -211 0.772613
w 232 231 212 1
w 232 231 -212 1
w 232 -231 212 1
w 232 -231 -212 0
w 233 232 213 1
w 233 232 -213 0
w 233 -232 213 1
w 233 -232 -213 1
w 234 233 214 0.466675
w 234 233 -214 0.658738
w 234 -233 214 0.588464
w 234 -233 -214 0.0371238
w 235 234 215 0
w 235 234 -215 1
w 235 -234 215 0
w 235 -234 -215 0
w 236 235 216 1
w 236 235 -216 1
w 236 -235 216 0
w 236 -235 -216 0
w 237 236 217 1
w 237 236 -217 0
w 237 -236 217 0
w 237 -236 -217 0
w 238 237 218 0.169985
w 238 237 -218 0.578907
w 238 -237 218 0.61662
w 238 -237 -218 0.225507
w 239 238 219 0.524843
w 239 238 -219 0.0263912
w 239 -238 219 0.787929
w 239 -238 -219 0.733065
w 240 239 220 0.254604
w 240 239 -220 0.391803
w 240 -239 220 0.116573
w 240 -239 -220 0.291728
w 241 221 0.895149
w 241 -221 0.0461186
w 242 241 222 0.660451
w 242 241 -222 0.21979
w 242 -241 222 0.279808
w 242 -241 -222 0.136861
w 243 242 223 0.78684
w 243 242 -223 0.50414
w 243 -242 223 0.0121111
w 243 -242 -223 0.633443
w 244 243 224 1
w 244 243 -224 1
w 244 -243 224 0
w 244 -243 -224 0
w 245 244 225 1
w 245 244 -225 1
w 245 -244 225 1
w 245 -244 -225 0
w 246 245 226 0.808329
w 246 245 -226 0.931133
w 246 -245 226 0.134206
w 246 -245 -226 0.0629337
w 247 246 227 1
w 247 246 -227 0
w 247 -246 227 1
w 247 -246 -227 1
w 248 247 228 1
w 248 247 -228 0
w 248 -247 228 0
w 248 -247 -228 0
w 249 248 229 0.233192
w 249 248 -229 0.800892
w 249 -248 229 0.44738
w 249 -248 -229 0.245303
w 250 249 230 0
w 250 249 -230 1
w 250 -249 230 1
w 250 -249 -230 0
w 251 250 231 0.415918
w 251 250 -231 0.65345
w 251 -250 231 0.363419
w 251 -250 -231 0.436318
w 252 251 232 0.969516
w 252 251 -232 0.244647
w 252 -251 232 0.782651
w 252 -251 -232 0.103722
w 253 252 233 1
w 253 252 -233 1
w 253 -252 233 0
w 253 -252 -233 0
w 254 253 234 0.0630229
w 254 253 -234 0.732289
w 254 -253 234 0.306809
w 254 -253 -234 0.683593
w 255 254 235 0.250049
w 255 254 -235 0.916785
w 255 -254 235 0.547233
w 255 -254 -235 0.69743
w 256 255 236 0
w 256 255 -236 1
w 256 -255 236 1
w 256 -255 -236 0
w 257 256 237 0.375318
w 257 256 -237 0.533158
w 257 -256 237 0.254727
w 257 -256 -237 0.738738
w 258 257 238 0.106245
w 258 257 -238 0.708254
w 258 -257 238 0.214123
w 258 -257 -238 0.888896
w 259 258 239 0.521704
w 259 258 -239 0.994483
w 259 -258 239 0.166477
w 259 -258 -239 0.183946
w 260 259 240 0.666906
w 260 259 -240 0.246969
w 260 -259 240 0.724818
w 260 -259 -240 0.973715
w 261 241 0.471159
w 261 -241 0.223764
w 262 261 242 0.018392
w 262 261 -242 0.921194
w 262 -261 242 0.00943482
w 262 -261 -242 0.99996
w 263 262 243 0.601039
w 263 262 -243 0.1172
w 263 -262 243 0.143521
w 263 -262 -243 0.976357
w 264 263 244 0.398247
w 264 263 -244 0.715095
w 264 -263 244 0.619834
w 264 -263 -244 0.504492
w 265 264 245 1
w 265 264 -245 0
w 265 -264 245 0
w 265 -264 -245 1
w 266 265 246 0
w 266 265 -246 1
w 266 -265 246 1
w 266 -265 -246 0
w 267 266 247 0.105219
w 267 266 -247 0.0424218
w 267 -266 247 0.717138
w 267 -266 -247 0.576378
w 268 267 248 0
w 268 267 -248 0
w 268 -267 248 1
w 268 -267 -248 0
w 269 268 249 0.729624
w 269 268 -249 0.174959
w 269 -268 249 0.71193
w 269 -268 -249 0.873145
w 270 269 250 1
w 270 269 -250 1
w 270 -269 250 0
w 270 -269 -250 0
w 271 270 251 0.289761
w 271 270 -251 0.81608
w 271 -270 251 0.169273
w 271 -270 -251 0.525086
w 272 271 252 0
w 272 271 -252 1
w 272 -271 252 1
w 272 -271 -252 0
w 273 272 253 0.497924
w 273 272 -253 0.0427633
w 273 -272 253 0.0380162
w 273 -272 -253 0.215063
w 274 273 254 0.304202
w 274 273 -254 0.779548
w 274 -273 254 0.213911
w 274 -273 -254 0.491582
w 275 274 255 1
w 275 274 -255 1
w 275 -274 255 1
w 275 -274 -255 0
w 276 275 256 0
w 276 275 -256 1
w 276 -275 256 0
w 276 -275 -256 0
w 277 276 257 0.141629
w 277 276 -257 0.835916
w 277 -276 257 0.681062
w 277 -276 -257 0.310901
w 278 277 258 0
w 278 277 -258 0
w 278 -277 258 0
w 278 -277 -258 1
w 279 278 259 0.283483
w 279 278 -259 0.0620749
w 279 -278 259 0.848353
w 279 -278 -259 0.3215
w 280 279 260 1
w 280 279 -260 0
w 280 -279 260 1
w 280 -279 -260 1
w 281 261 0
w 281 -261 1
w 282 281 262 0
w 282 281 -262 1
w 282 -281 262 1
w 282 -281 -262 0
w 283 282 263 0.893478
w 283 282 -263 0.798586
w 283 -282 263 0.164479
w 283 -282 -263 0.75846
w 284 283 264 0.000395067
w 284 283 -264 0.439522
w 284 -283 264 0.251116
w 284 -283 -264 0.361397
w 285 284 265 1
w 285 284 -265 0
w 285 -284 265 0
w 285 -284 -265 0
w 286 285 266 0.773105
w 286 285 -266 0.254269
w 286 -285 266 0.195688
w 286 -285 -266 0.2406
w 287 286 267 0.252374
w 287 286 -267 0.922006
w 287 -286 267 0.997254
w 287 -286 -267 0.662527
w 288 287 268 0
w 288 287 -268 1
w 288 -287 268 1
w 288 -287 -268 1
w 289 288 269 0
w 289 288 -269 0
w 289 -288 269 0
w 289 -288 -269 1
w 290 289 270 1
w 290 289 -270 1
w 290 -289 270 1
w 290 -289 -270 0
w 291 290 271 0.394988
w 291 290 -271 0.662933
w 291 -290 271 0.802414
w 291 -290 -271 0.327757
w 292 291 272 0.575519
w 292 291 -272 0.582026
w 292 -291 272 0.777171
w 292 -291 -272 0.816119
w 293 292 273 0
w 293 292 -273 1
w 293 -292 273 1
w 293 -292 -273 1
w 294 293 274 0
w 294 293 -274 0
w 294 -293 274 1
w 294 -293 -274 1
w 295 294 275 0.889001
w 295 294 -275 0.130751
w 295 -294 275 0.89652
w 295 -294 -275 0.963611
w 296 295 276 0.280825
w 296 295 -276 0.477744
w 296 -295 276 0.396637
w 296 -295 -276 0.0265272
w 297 296 277 1
w 297 296 -277 0
w 297 -296 277 0
w 297 -296 -277 0
w 298 297 278 0.528617
w 298 297 -278 0.652233
w 298 -297 278 0.331299
w 298 -297 -278 0.305788
w 299 298 279 1
w 299 298 -279 0
w 299 -298 279 0
w 299 -298 -279 0
w 300 299 280 0
w 300 299 -280 0
w 300 -299 280 0
w 300 -299 -280 1
w 301 281 0.833193
w 301 -281 0.818509
w 302 301 282 0.729713
w 302 301 -282 0.78212
w 302 -301 282 0.380009
w 302 -301 -282 0.0105377
w 303 302 283 0
w 303 302 -283 0
w 303 -302 283 0
w 303 -302 -283 1
w 304 303 284 1
w 304 303 -284 1
w 304 -303 284 1
w 304 -303 -284 0
w 305 304 285 0.539152
w 305 304 -285 0.325603
w 305 -304 285 0.248246
w 305 -304 -285 0.332448
w 306 305 286 0.454724
w 306 305 -286 0.584994
w 306 -305 286 0.688339
w 306 -305 -286 0.811382
w 307 306 287 0.00892194
w 307 306 -287 0.74089
w 307 -306 287 0.243657
w 307 -306 -287 0.842115
w 308 307 288 0.98553
w 308 307 -288 0.571827
w 308 -307 288 0.341519
w 308 -307 -288 0.365539
w 309 308 289 0.601383
w 309 308 -289 0.142185
w 309 -308 289 0.61943
w 309 -308 -289 0.145448
w 310 309 290 1
w 310 309 -290 1
w 310 -309 290 0
w 310 -309 -290 1
w 311 310 291 0.100685
w 311 310 -291 0.825014
w 311 -310 291 0.982066
w 311 -310 -291 0.348931
w 312 311 292 0
w 312 311 -292 1
w 312 -311 292 0
w 312 -311 -292 1
w 313 312 293 0.374992
w 313 312 -293 0.340263
w 313 -312 293 0.355927
w 313 -312 -293 0.618649
w 314 313 294 0
w 314 313 -294 1
w 314 -313 294 1
w 314 -313 -294 1
w 315 314 295 0.336569
w 315 314 -295 0.858229
w 315 -314 295 0.111903
w 315 -314 -295 0.955999
w 316 315 296 0
w 316 315 -296 1
w 316 -315 296 1
w 316 -315 -296 0
w 317 316 297 1
w 317 316 -297 1
w 317 -316 297 0
w 317 -316 -297 1
w 318 317 298 1
w 318 317 -298 1
w 318 -317 298 1
w 318 -317 -298 0
w 319 318 299 1
w 319 318 -299 0
w 319 -318 299 1
w 319 -318 -299 0
w 320 319 300 0.76539
w 320 319 -300 0.642623
w 320 -319 300 0.530038
w 320 -319 -300 0.0222361
w 321 301 0.866607
w 321 -301 0.880465
w 322 321 302 0.822606
w 322 321 -302 0.884142
w 322 -321 302 0.0292782
w 322 -321 -302 0.856615
w 323 322 303 0.655105
w 323 322 -303 0.176485
w 323 -322 303 0.821253
w 323 -322 -303 0.381616
w 324 323 304 0
w 324 323 -304 1
w 324 -323 304 0
w 324 -323 -304 1
w 325 324 305 1
w 325 324 -305 0
w 325 -324 305 0
w 325 -324 -305 1
w 326 325 306 0.680359
w 326 325 -306 0.12676
w 326 -325 306 0.644445
w 326 -325 -306 0.445749
w 327 326 307 0.174483
w 327 326 -307 0.467985
w 327 -326 307 0.381723
w 327 -326 -307 0.0410905
w 328 327 308 1
w 328 327 -308 1
w 328 -327 308 0
w 328 -327 -308 0
w 329 328 309 0.757059
w 329 328 -309 0.79035
w 329 -328 309 0.896797
w 329 -328 -309 0.578311
w 330 329 310 1
w 330 329 -310 0
w 330 -329 310 0
w 330 -329 -310 1
w 331 330 311 0.965183
w 331 330 -311 0.510407
w 331 -330 311 0.975529
w 331 -330 -311 0.795477
w 332 331 312 0.844139
w 332 331 -312 0.475836
w 332 -331 312 0.725483
w 332 -331 -312 0.488584
w 333 332 313 0.494866
w 333 332 -313 0.663067
w 333 -332 313 0.38957
w 333 -332 -313 0.876589
w 334 333 314 0.73802
w 334 333 -314 0.982556
w 334 -333 314 0.567854
w 334 -333 -314 0.970613
w 335 334 315 1
w 335 334 -315 0
w 335 -334 315 0
w 335 -334 -315 1
w 336 335 316 1
w 336 335 -316 1
w 336 -335 316 0
w 336 -335 -316 0
w 337 336 317 0
w 337 336 -317 1
w 337 -336 317 1
w 337 -336 -317 1
w 338 337 318 0
w 338 337 -318 0
w 338 -337 318 1
w 338 -337 -318 0
w 339 338 319 0.574494
w 339 338 -319 0.656095
w 339 -338 319 0.256791
w 339 -338 -319 0.451083
w 340 339 320 1
w 340 339 -320 0
w 340 -339 320 0
w 340 -339 -320 0
w 341 321 0.216272
w 341 -321 0.693095
w 342 341 322 1
w 342 341 -322 0
w 342 -341 322 1
w 342 -341 -322 0
w 343 342 323 0.248848
w 343 342 -323 0.0493785
w 343 -342 323 0.668252
w 343 -342 -323 0.923172
w 344 343 324 0.328556
w 344 343 -324 0.392973
w 344 -343 324 0.158945
w 344 -343 -324 0.832999
w 345 344 325 0
w 345 344 -325 1
w 345 -344 325 1
w 345 -344 -325 0
w 346 345 326 0
w 346 345 -326 1
w 346 -345 326 1
w 346 -345 -326 0
w 347 346 327 0.77048
w 347 346 -327 0.422858
w 347 -346 327 0.24923
w 347 -346 -327 0.986752
w 348 347 328 0
w 348 347 -328 0
w 348 -347 328 0
w 348 -347 -328 1
w 349 348 329 0
w 349 348 -329 1
w 349 -348 329 0
w 349 -348 -329 1
w 350 349 330 0
w 350 349 -330 0
w 350 -349 330 1
w 350 -349 -330 0
w 351 350 331 0
w 351 350 -331 1
w 351 -350 331 0
w 351 -350 -331 0
w 352 351 332 1
w 352 351 -332 0
w 352 -351 332 0
w 352 -351 -332 1
w 353 352 333 0
w 353 352 -333 1
w 353 -352 333 0
w 353 -352 -333 1
w 354 353 334 0.177105
w 354 353 -334 0.224054
w 354 -353 334 0.93186
w 354 -353 -334 0.425634
w 355 354 335 1
w 355 354 -335 0
w 355 -354 335 1
w 355 -354 -335 0
w 356 355 336 0
w 356 355 -336 1
w 356 -355 336 0
w 356 -355 -336 0
w 357 356 337 0.309213
w 357 356 -337 0.354179
w 357 -356 337 0.575102
w 357 -356 -337 0.667174
w 358 357 338 0.811565
w 358 357 -338 0.487758
w 358 -357 338 0.132555
w 358 -357 -338 0.8904
w 359 358 339 0.351607
w 359 358 -339 0.739716
w 359 -358 339 0.46665
w 359 -358 -339 0.81989
w 360 359 340 0.283479
w 360 359 -340 0.996995
w 360 -359 340 0.799837
w 360 -359 -340 0.215339
w 361 341 1
w 361 -341 0
w 362 361 342 1
w 362 361 -342 1
w 362 -361 342 0
w 362 -361 -342 1
w 363 362 343 0.935283
w 363 362 -343 0.846282
w 363 -362 343 0.489165
w 363 -362 -343 0.756044
w 364 363 344 1
w 364 363 -344 0
w 364 -363 344 1
w 364 -363 -344 0
w 365 364 345 0
w 365 364 -345 1
w 365 -364 345 1
w 365 -364 -345 1
w 366 365 346 0.772827
w 366 365 -346 0.542853
w 366 -365 346 0.758688
w 366 -365 -346 0.34861
w 367 366 347 0.755683
w 367 366 -347 0.148447
w 367 -366 347 0.0416711
w 367 -366 -347 0.178311
w 368 367 348 1
w 368 367 -348 0
w 368 -367 348 0
w 368 -367 -348 1
w 369 368 349 1
w 369 368 -349 0
w 369 -368 349 0
w 369 -368 -349 0
w 370 369 350 0
w 370 369 -350 1
w 370 -369 350 1
w 370 -369 -350 1
w 371 370 351 0.495401
w 371 370 -351 0.348022
w 371 -370 351 0.192426
w 371 -370 -351 0.528512
w 372 371 352 0
w 372 371 -352 0
w 372 -371 352 1
w 372 -371 -352 1
w 373 372 353 0.793409
w 373 372 -353 0.645594
w 373 -372 353 0.798396
w 373 -372 -353 0.83508
w 374 373 354 0.163083
w 374 373 -354 0.122459
w 374 -373 354 0.347857
w 374 -373 -354 0.402143
w 375 374 355 0
w 375 374 -355 0
w 375 -374 355 1
w 375 -374 -355 0
w 376 375 356 0.835365
w 376 375 -356 0.678091
w 376 -375 356 0.0924123
w 376 -375 -356 0.872961
w 377 376 357 1
w 377 376 -357 1
w 377 -376 357 0
w 377 -376 -357 1
w 378 377 358 0.417664
w 378 377 -358 0.612285
w 378 -377 358 0.496888
w 378 -377 -358 0.0676126
w 379 378 359 1
w 379 378 -359 1
w 379 -378 359 0
w 379 -378 -359 0
w 380 379 360 0
w 380 379 -360 1
w 380 -379 360 0
w 380 -379 -360 1
w 381 361 0.651469
w 381 -361 0.534087
w 382 381 362 1
w 382 381 -362 0
w 382 -381 362 1
w 382 -381 -362 1
w 383 382 363 0
w 383 382 -363 1
w 383 -382 363 0
w 383 -382 -363 1
w 384 383 364 0.0703598
w 384 383 -364 0.0702064
w 384 -383 364 0.223106
w 384 -383 -364 0.488024
w 385 384 365 0.719994
w 385 384 -365 0.555636
w 385 -384 365 0.0881846
w 385 -384 -365 0.862476
w 386 385 366 0
w 386 385 -366 0
w 386 -385 366 1
w 386 -385 -366 0
w 387 386 367 1
w 387 386 -367 1
w 387 -386 367 0
w 387 -386 -367 0
w 388 387 368 1
w 388 387 -368 1
w 388 -387 368 1
w 388 -387 -368 0
w 389 388 369 0.682216
w 389 388 -369 0.0491217
w 389 -388 369 0.709828
w 389 -388 -369 0.63625
w 390 389 370 0
w 390 389 -370 1
w 390 -389 370 1
w 390 -389 -370 1
w 391 390 371 0
w 391 390 -371 1
w 391 -390 371 0
w 391 -390 -371 0
w 392 391 372 0.9604
w 392 391 -372 0.622651
w 392 -391 372 0.336151
w 392 -391 -372 0.103509
w 393 392 373 0.844252
w 393 392 -373 0.121869
w 393 -392 373 0.0380614
w 393 -392 -373 0.886439
w 394 393 374 0.750461
w 394 393 -374 0.202434
w 394 -393 374 0.481025
w 394 -393 -374 0.319911
w 395 394 375 0.530147
w 395 394 -375 0.0297391
w 395 -394 375 0.5209
w 395 -394 -375 0.00426764
w 396 395 376 0
w 396 395 -376 0
w 396 -395 376 1
w 396 -395 -376 0
w 397 396 377 0.173821
w 397 396 -377 0.172414
w 397 -396 377 0.090415
w 397 -396 -377 0.305357
w 398 397 378 0
w 398 397 -378 1
w 398 -397 378 1
w 398 -397 -378 0
w 399 398 379 0
w 399 398 -379 0
w 399 -398 379 1
w 399 -398 -379 0
w 400 399 380 0
w 400 399 -380 0
w 400 -399 380 1
w 400 -399 -380 1